\ENCODING=ISO-8859-1
\Problem name: IloCplex

Minimize
 obj: 5 x1 + 974 x2 + x3 + 2 x4 + 945 x5 + x6 + 4 x7 + 976 x8 + x9 + 4 x10
      + 1094 x11 + x12 + 5 x13 + 1097 x14 + x15 + 3 x16 + 981 x17 + x18 + 3 x19
      + 1100 x20 + x21 + x22 + 1075 x23 + x24 + 3 x25 + 979 x26 + x27 + x28
      + 1032 x29 + x30 + 2 x31 + 959 x32 + x33 + 4 x34 + 1052 x35 + x36 + 2 x37
      + 918 x38 + x39 + x40 + 932 x41 + x42 + 4 x43 + 1089 x44 + x45 + x46
      + 1023 x47 + x48 + 2 x49 + 1061 x50 + x51 + 3 x52 + 1041 x53 + x54
      + 4 x55 + 920 x56 + x57 + 2 x58 + 1021 x59 + x60 + 2 x61 + 910 x62 + x63
      + 3 x64 + 934 x65 + x66 + 3 x67 + 956 x68 + x69 + x70 + 1055 x71 + x72
      + 4 x73 + 958 x74 + x75 + x76 + 1085 x77 + x78 + 3 x79 + 1100 x80 + x81
      + 4 x82 + 1063 x83 + x84 + 5 x85 + 1062 x86 + x87 + 5 x88 + 1036 x89
      + x90 + 2 x91 + 938 x92 + x93 + 4 x94 + 979 x95 + x96 + 2 x97 + 1034 x98
      + x99 + 4 x100 + 929 x101 + x102 + 5 x103 + 966 x104 + x105 + 3 x106
      + 1047 x107 + x108 + 2 x109 + 1100 x110 + x111 + 4 x112 + 955 x113 + x114
      + 4 x115 + 1071 x116 + x117 + 4 x118 + 1030 x119 + x120 + 4 x121
      + 1090 x122 + x123 + 3 x124 + 1037 x125 + x126 + 2 x127 + 1009 x128
      + x129 + x130 + 983 x131 + x132 + 5 x133 + 908 x134 + x135 + x136
      + 923 x137 + x138 + x139 + 997 x140 + x141 + 5 x142 + 1030 x143 + x144
      + 4 x145 + 1064 x146 + x147 + 3 x148 + 983 x149 + x150 + 2 x151
      + 989 x152 + x153 + 5 x154 + 1068 x155 + x156 + 5 x157 + 968 x158 + x159
      + 2 x160 + 971 x161 + x162 + x163 + 940 x164 + x165 + 5 x166 + 987 x167
      + x168 + 5 x169 + 935 x170 + x171 + x172 + 970 x173 + x174 + 3 x175
      + 909 x176 + x177 + 5 x178 + 1017 x179 + x180 + x181 + 998 x182 + x183
      + x184 + 903 x185 + x186 + 3 x187 + 900 x188 + x189 + 4 x190 + 929 x191
      + x192 + 3 x193 + 962 x194 + x195 + x196 + 966 x197 + x198 + 2 x199
      + 1070 x200 + x201 + x202 + 1097 x203 + x204 + 4 x205 + 1022 x206 + x207
      + 4 x208 + 1019 x209 + x210 + 2 x211 + 1067 x212 + x213 + 4 x214
      + 999 x215 + x216 + 5 x217 + 1032 x218 + x219 + 5 x220 + 1040 x221 + x222
      + 4 x223 + 1051 x224 + x225 + x226 + 966 x227 + x228 + 2 x229 + 983 x230
      + x231 + x232 + 957 x233 + x234 + 2 x235 + 1081 x236 + x237 + x238
      + 1023 x239 + x240 + 3 x241 + 1086 x242 + x243 + 3 x244 + 1013 x245
      + x246 + 4 x247 + 1075 x248 + x249 + 2 x250 + 902 x251 + x252 + 5 x253
      + 979 x254 + x255 + 4 x256 + 960 x257 + x258 + 3 x259 + 1012 x260 + x261
      + x262 + 971 x263 + x264 + 2 x265 + 1011 x266 + x267 + 4 x268 + 1095 x269
      + x270
Subject To
 c1:   x1 - x3  = 304
 c2:   x3 + x4 - x6  = 457
 c3:   x6 + x7 - x9  = 181
 c4:   x9 + x10 - x12  = 366
 c5:   x12 + x13 - x15  = 439
 c6:   x15 + x16 - x18  = 430
 c7:   x18 + x19 - x21  = 149
 c8:   x21 + x22 - x24  = 332
 c9:   x24 + x25 - x27  = 499
 c10:  x27 + x28 - x30  = 284
 c11:  x30 + x31 - x33  = 461
 c12:  x33 + x34 - x36  = 443
 c13:  x36 + x37 - x39  = 68
 c14:  x39 + x40 - x42  = 43
 c15:  x42 + x43 - x45  = 578
 c16:  x45 + x46 - x48  = 164
 c17:  x48 + x49 - x51  = 395
 c18:  x51 + x52 - x54  = 375
 c19:  x54 + x55 - x57  = 402
 c20:  x57 + x58 - x60  = 448
 c21:  x60 + x61 - x63  = 465
 c22:  x63 + x64 - x66  = 116
 c23:  x66 + x67 - x69  = 64
 c24:  x69 + x70 - x72  = 303
 c25:  x72 + x73 - x75  = 60
 c26:  x75 + x76 - x78  = 466
 c27:  x78 + x79 - x81  = 67
 c28:  x81 + x82 - x84  = 118
 c29:  x84 + x85 - x87  = 326
 c30:  x87 + x88 - x90  = 53
 c31:  x90 + x91 - x93  = 6
 c32:  x93 + x94 - x96  = 270
 c33:  x96 + x97 - x99  = 233
 c34:  x99 + x100 - x102  = 289
 c35:  x102 + x103 - x105  = 554
 c36:  x105 + x106 - x108  = 367
 c37:  x108 + x109 - x111  = 268
 c38:  x111 + x112 - x114  = 526
 c39:  x114 + x115 - x117  = 554
 c40:  x117 + x118 - x120  = 323
 c41:  x120 + x121 - x123  = 199
 c42:  x123 + x124 - x126  = 350
 c43:  x126 + x127 - x129  = 162
 c44:  x129 + x130 - x132  = 347
 c45:  x132 + x133 - x135  = 455
 c46:  x135 + x136 - x138  = 126
 c47:  x138 + x139 - x141  = 341
 c48:  x141 + x142 - x144  = 204
 c49:  x144 + x145 - x147  = 580
 c50:  x147 + x148 - x150  = 380
 c51:  x150 + x151 - x153  = 447
 c52:  x153 + x154 - x156  = 418
 c53:  x156 + x157 - x159  = 75
 c54:  x159 + x160 - x162  = 111
 c55:  x162 + x163 - x165  = 501
 c56:  x165 + x166 - x168  = 220
 c57:  x168 + x169 - x171  = 123
 c58:  x171 + x172 - x174  = 348
 c59:  x174 + x175 - x177  = 162
 c60:  x177 + x178 - x180  = 227
 c61:  x180 + x181 - x183  = 135
 c62:  x183 + x184 - x186  = 312
 c63:  x186 + x187 - x189  = 535
 c64:  x189 + x190 - x192  = 524
 c65:  x192 + x193 - x195  = 256
 c66:  x195 + x196 - x198  = 423
 c67:  x198 + x199 - x201  = 76
 c68:  x201 + x202 - x204  = 509
 c69:  x204 + x205 - x207  = 53
 c70:  x207 + x208 - x210  = 116
 c71:  x210 + x211 - x213  = 534
 c72:  x213 + x214 - x216  = 483
 c73:  x216 + x217 - x219  = 291
 c74:  x219 + x220 - x222  = 491
 c75:  x222 + x223 - x225  = 158
 c76:  x225 + x226 - x228  = 406
 c77:  x228 + x229 - x231  = 420
 c78:  x231 + x232 - x234  = 446
 c79:  x234 + x235 - x237  = 243
 c80:  x237 + x238 - x240  = 5
 c81:  x240 + x241 - x243  = 323
 c82:  x243 + x244 - x246  = 407
 c83:  x246 + x247 - x249  = 138
 c84:  x249 + x250 - x252  = 270
 c85:  x252 + x253 - x255  = 176
 c86:  x255 + x256 - x258  = 312
 c87:  x258 + x259 - x261  = 133
 c88:  x261 + x262 - x264  = 450
 c89:  x264 + x265 - x267  = 37
 c90:  x267 + x268 - x270  = 245
 c91:  x1 - 1441 x2 <= 0
 c92:  x4 - 1419 x5 <= 0
 c93:  x7 - 1362 x8 <= 0
 c94:  x10 - 1624 x11 <= 0
 c95:  x13 - 1592 x14 <= 0
 c96:  x16 - 1348 x17 <= 0
 c97:  x19 - 1468 x20 <= 0
 c98:  x22 - 1457 x23 <= 0
 c99:  x25 - 1443 x26 <= 0
 c100: x28 - 1391 x29 <= 0
 c101: x31 - 1564 x32 <= 0
 c102: x34 - 1418 x35 <= 0
 c103: x37 - 1555 x38 <= 0
 c104: x40 - 1598 x41 <= 0
 c105: x43 - 1380 x44 <= 0
 c106: x46 - 1361 x47 <= 0
 c107: x49 - 1454 x50 <= 0
 c108: x52 - 1612 x53 <= 0
 c109: x55 - 1447 x56 <= 0
 c110: x58 - 1435 x59 <= 0
 c111: x61 - 1411 x62 <= 0
 c112: x64 - 1390 x65 <= 0
 c113: x67 - 1455 x68 <= 0
 c114: x70 - 1601 x71 <= 0
 c115: x73 - 1374 x74 <= 0
 c116: x76 - 1636 x77 <= 0
 c117: x79 - 1423 x80 <= 0
 c118: x82 - 1383 x83 <= 0
 c119: x85 - 1362 x86 <= 0
 c120: x88 - 1597 x89 <= 0
 c121: x91 - 1474 x92 <= 0
 c122: x94 - 1509 x95 <= 0
 c123: x97 - 1503 x98 <= 0
 c124: x100 - 1411 x101 <= 0
 c125: x103 - 1547 x104 <= 0
 c126: x106 - 1520 x107 <= 0
 c127: x109 - 1402 x110 <= 0
 c128: x112 - 1349 x113 <= 0
 c129: x115 - 1460 x116 <= 0
 c130: x118 - 1524 x119 <= 0
 c131: x121 - 1360 x122 <= 0
 c132: x124 - 1409 x125 <= 0
 c133: x127 - 1476 x128 <= 0
 c134: x130 - 1438 x131 <= 0
 c135: x133 - 1630 x134 <= 0
 c136: x136 - 1348 x137 <= 0
 c137: x139 - 1629 x140 <= 0
 c138: x142 - 1435 x143 <= 0
 c139: x145 - 1523 x146 <= 0
 c140: x148 - 1469 x149 <= 0
 c141: x151 - 1413 x152 <= 0
 c142: x154 - 1471 x155 <= 0
 c143: x157 - 1502 x158 <= 0
 c144: x160 - 1459 x161 <= 0
 c145: x163 - 1565 x164 <= 0
 c146: x166 - 1348 x167 <= 0
 c147: x169 - 1542 x170 <= 0
 c148: x172 - 1635 x173 <= 0
 c149: x175 - 1609 x176 <= 0
 c150: x178 - 1424 x179 <= 0
 c151: x181 - 1484 x182 <= 0
 c152: x184 - 1402 x185 <= 0
 c153: x187 - 1349 x188 <= 0
 c154: x190 - 1596 x191 <= 0
 c155: x193 - 1578 x194 <= 0
 c156: x196 - 1491 x197 <= 0
 c157: x199 - 1398 x200 <= 0
 c158: x202 - 1487 x203 <= 0
 c159: x205 - 1634 x206 <= 0
 c160: x208 - 1361 x209 <= 0
 c161: x211 - 1591 x212 <= 0
 c162: x214 - 1436 x215 <= 0
 c163: x217 - 1485 x218 <= 0
 c164: x220 - 1631 x221 <= 0
 c165: x223 - 1599 x224 <= 0
 c166: x226 - 1588 x227 <= 0
 c167: x229 - 1476 x230 <= 0
 c168: x232 - 1366 x233 <= 0
 c169: x235 - 1574 x236 <= 0
 c170: x238 - 1505 x239 <= 0
 c171: x241 - 1390 x242 <= 0
 c172: x244 - 1399 x245 <= 0
 c173: x247 - 1541 x248 <= 0
 c174: x250 - 1575 x251 <= 0
 c175: x253 - 1573 x254 <= 0
 c176: x256 - 1528 x257 <= 0
 c177: x259 - 1621 x260 <= 0
 c178: x262 - 1569 x263 <= 0
 c179: x265 - 1388 x266 <= 0
 c180: x268 - 1627 x269 <= 0
Bounds
 0 <= x2 <= 1
 0 <= x5 <= 1
 0 <= x8 <= 1
 0 <= x11 <= 1
 0 <= x14 <= 1
 0 <= x17 <= 1
 0 <= x20 <= 1
 0 <= x23 <= 1
 0 <= x26 <= 1
 0 <= x29 <= 1
 0 <= x32 <= 1
 0 <= x35 <= 1
 0 <= x38 <= 1
 0 <= x41 <= 1
 0 <= x44 <= 1
 0 <= x47 <= 1
 0 <= x50 <= 1
 0 <= x53 <= 1
 0 <= x56 <= 1
 0 <= x59 <= 1
 0 <= x62 <= 1
 0 <= x65 <= 1
 0 <= x68 <= 1
 0 <= x71 <= 1
 0 <= x74 <= 1
 0 <= x77 <= 1
 0 <= x80 <= 1
 0 <= x83 <= 1
 0 <= x86 <= 1
 0 <= x89 <= 1
 0 <= x92 <= 1
 0 <= x95 <= 1
 0 <= x98 <= 1
 0 <= x101 <= 1
 0 <= x104 <= 1
 0 <= x107 <= 1
 0 <= x110 <= 1
 0 <= x113 <= 1
 0 <= x116 <= 1
 0 <= x119 <= 1
 0 <= x122 <= 1
 0 <= x125 <= 1
 0 <= x128 <= 1
 0 <= x131 <= 1
 0 <= x134 <= 1
 0 <= x137 <= 1
 0 <= x140 <= 1
 0 <= x143 <= 1
 0 <= x146 <= 1
 0 <= x149 <= 1
 0 <= x152 <= 1
 0 <= x155 <= 1
 0 <= x158 <= 1
 0 <= x161 <= 1
 0 <= x164 <= 1
 0 <= x167 <= 1
 0 <= x170 <= 1
 0 <= x173 <= 1
 0 <= x176 <= 1
 0 <= x179 <= 1
 0 <= x182 <= 1
 0 <= x185 <= 1
 0 <= x188 <= 1
 0 <= x191 <= 1
 0 <= x194 <= 1
 0 <= x197 <= 1
 0 <= x200 <= 1
 0 <= x203 <= 1
 0 <= x206 <= 1
 0 <= x209 <= 1
 0 <= x212 <= 1
 0 <= x215 <= 1
 0 <= x218 <= 1
 0 <= x221 <= 1
 0 <= x224 <= 1
 0 <= x227 <= 1
 0 <= x230 <= 1
 0 <= x233 <= 1
 0 <= x236 <= 1
 0 <= x239 <= 1
 0 <= x242 <= 1
 0 <= x245 <= 1
 0 <= x248 <= 1
 0 <= x251 <= 1
 0 <= x254 <= 1
 0 <= x257 <= 1
 0 <= x260 <= 1
 0 <= x263 <= 1
 0 <= x266 <= 1
 0 <= x269 <= 1
Binaries
 x2  x5  x8  x11  x14  x17  x20  x23  x26  x29  x32  x35  x38  x41  x44  x47 
 x50  x53  x56  x59  x62  x65  x68  x71  x74  x77  x80  x83  x86  x89  x92 
 x95  x98  x101  x104  x107  x110  x113  x116  x119  x122  x125  x128  x131 
 x134  x137  x140  x143  x146  x149  x152  x155  x158  x161  x164  x167  x170 
 x173  x176  x179  x182  x185  x188  x191  x194  x197  x200  x203  x206  x209 
 x212  x215  x218  x221  x224  x227  x230  x233  x236  x239  x242  x245  x248 
 x251  x254  x257  x260  x263  x266  x269 
End
